(set-logic ALL)
(declare-fun var0 () String)
(assert (str.in_re var0 (re.++ (re.* (re.+ (re.+ (re.union (re.* (re.+ (str.to_re "0"))) (re.* (re.* (str.to_re "111"))))))) (re.union (re.union (re.* (re.union (re.* (re.+ (str.to_re "2"))) (re.* (re.+ (str.to_re "33"))))) (re.* (re.+ (re.union (re.* (str.to_re "44")) (re.* (str.to_re "55")))))) (re.union (re.+ (re.union (re.union (re.union (str.to_re "66") (str.to_re "7")) (re.union (str.to_re "888") (str.to_re "999"))) (re.union (re.union (str.to_re "aaa") (str.to_re "bbb")) (re.union (str.to_re "cc") (str.to_re "dd"))))) (re.+ (re.+ (re.+ (re.union (str.to_re "ee") (str.to_re "f"))))))))))
(assert (<= 15 (str.len var0)))
(check-sat)